
Gurobi 9.0.1 (linux64) logging started Thu Apr 30 05:57:52 2020

Gurobi Optimizer version 9.0.1 build v9.0.1rc0 (linux64)
Optimize a model with 896 rows, 990 columns and 6984 nonzeros
Model fingerprint: 0x92dcbef9
Variable types: 0 continuous, 990 integer (980 binary)
Coefficient statistics:
  Matrix range     [1e+00, 5e+00]
  Objective range  [5e+00, 1e+02]
  Bounds range     [1e+00, 1e+00]
  RHS range        [1e+00, 1e+00]

User MIP start produced solution with objective 568 (0.00s)
Loaded user MIP start with objective 568

Presolve removed 260 rows and 384 columns
Presolve time: 0.06s
Presolved: 636 rows, 606 columns, 4806 nonzeros
Variable types: 0 continuous, 606 integer (598 binary)

Root relaxation: objective 4.085374e+02, 506 iterations, 0.03 seconds

    Nodes    |    Current Node    |     Objective Bounds      |     Work
 Expl Unexpl |  Obj  Depth IntInf | Incumbent    BestBd   Gap | It/Node Time

     0     0  408.53737    0  233  568.00000  408.53737  28.1%     -    0s
     0     0  415.55127    0  252  568.00000  415.55127  26.8%     -    0s
     0     0  416.13014    0  256  568.00000  416.13014  26.7%     -    0s
     0     0  416.15096    0  256  568.00000  416.15096  26.7%     -    0s
     0     0  416.75657    0  255  568.00000  416.75657  26.6%     -    0s
     0     0  416.76901    0  254  568.00000  416.76901  26.6%     -    0s
     0     0  416.77103    0  254  568.00000  416.77103  26.6%     -    0s
     0     0  422.65610    0  250  568.00000  422.65610  25.6%     -    0s
     0     0  422.92276    0  240  568.00000  422.92276  25.5%     -    0s
     0     0  422.99280    0  241  568.00000  422.99280  25.5%     -    0s
     0     0  422.99973    0  245  568.00000  422.99973  25.5%     -    0s
     0     0  427.67641    0  280  568.00000  427.67641  24.7%     -    0s
     0     0  427.89692    0  280  568.00000  427.89692  24.7%     -    0s
     0     0  428.02457    0  279  568.00000  428.02457  24.6%     -    0s
     0     0  428.03114    0  281  568.00000  428.03114  24.6%     -    0s
     0     0  431.19306    0  272  568.00000  431.19306  24.1%     -    0s
     0     0  432.35464    0  276  568.00000  432.35464  23.9%     -    0s
     0     0  432.39666    0  272  568.00000  432.39666  23.9%     -    0s
     0     0  432.40791    0  271  568.00000  432.40791  23.9%     -    0s
     0     0  432.90089    0  270  568.00000  432.90089  23.8%     -    1s
     0     0  433.01213    0  270  568.00000  433.01213  23.8%     -    1s
     0     0  433.01427    0  272  568.00000  433.01427  23.8%     -    1s
     0     0  434.03217    0  278  568.00000  434.03217  23.6%     -    1s
     0     0  434.22544    0  273  568.00000  434.22544  23.6%     -    1s
     0     0  434.30229    0  272  568.00000  434.30229  23.5%     -    1s
     0     0  434.30420    0  272  568.00000  434.30420  23.5%     -    1s
     0     0  434.74403    0  277  568.00000  434.74403  23.5%     -    1s
     0     0  434.75298    0  278  568.00000  434.75298  23.5%     -    1s
     0     0  435.33612    0  271  568.00000  435.33612  23.4%     -    1s
     0     0  435.54620    0  274  568.00000  435.54620  23.3%     -    1s
     0     0  435.56866    0  279  568.00000  435.56866  23.3%     -    1s
     0     0  435.57172    0  281  568.00000  435.57172  23.3%     -    1s
     0     0  435.78974    0  278  568.00000  435.78974  23.3%     -    1s
     0     0  435.79565    0  280  568.00000  435.79565  23.3%     -    1s
     0     0  436.17615    0  282  568.00000  436.17615  23.2%     -    1s
     0     0  436.26075    0  282  568.00000  436.26075  23.2%     -    1s
     0     0  436.28358    0  282  568.00000  436.28358  23.2%     -    1s
     0     0  436.28533    0  284  568.00000  436.28533  23.2%     -    1s
     0     0  436.37349    0  286  568.00000  436.37349  23.2%     -    1s
     0     0  436.37349    0  286  568.00000  436.37349  23.2%     -    1s
H    0     0                     488.0000000  436.37349  10.6%     -    1s
     0     0  436.46178    0  233  488.00000  436.46178  10.6%     -    1s
     0     0  436.46178    0  254  488.00000  436.46178  10.6%     -    1s
     0     0  436.46178    0  263  488.00000  436.46178  10.6%     -    1s
     0     0  436.46178    0  259  488.00000  436.46178  10.6%     -    1s
     0     0  436.46178    0  274  488.00000  436.46178  10.6%     -    1s
     0     0  436.46178    0  270  488.00000  436.46178  10.6%     -    1s
     0     0  436.46178    0  268  488.00000  436.46178  10.6%     -    1s
     0     0  436.46178    0  270  488.00000  436.46178  10.6%     -    1s
     0     0  436.46178    0  265  488.00000  436.46178  10.6%     -    1s
     0     0  436.46178    0  274  488.00000  436.46178  10.6%     -    2s
     0     0  436.46178    0  275  488.00000  436.46178  10.6%     -    2s
     0     0  436.46178    0  276  488.00000  436.46178  10.6%     -    2s
     0     0  436.46178    0  276  488.00000  436.46178  10.6%     -    2s
     0     0  436.46178    0  280  488.00000  436.46178  10.6%     -    2s
     0     0  436.46178    0  283  488.00000  436.46178  10.6%     -    2s
     0     0  436.46178    0  281  488.00000  436.46178  10.6%     -    2s
     0     0  436.46178    0  281  488.00000  436.46178  10.6%     -    2s
     0     0  437.47222    0  281  488.00000  437.47222  10.4%     -    2s
     0     0  437.68489    0  276  488.00000  437.68489  10.3%     -    2s
     0     0  437.87124    0  285  488.00000  437.87124  10.3%     -    2s
     0     0  437.97437    0  285  488.00000  437.97437  10.3%     -    2s
     0     0  437.98184    0  285  488.00000  437.98184  10.2%     -    2s
     0     0  438.28886    0  274  488.00000  438.28886  10.2%     -    2s
     0     0  438.32942    0  275  488.00000  438.32942  10.2%     -    2s
     0     0  438.33220    0  275  488.00000  438.33220  10.2%     -    2s
     0     0  438.59479    0  272  488.00000  438.59479  10.1%     -    2s
     0     0  438.98533    0  283  488.00000  438.98533  10.0%     -    2s
     0     0  439.03305    0  284  488.00000  439.03305  10.0%     -    2s
     0     0  439.04475    0  282  488.00000  439.04475  10.0%     -    2s
     0     0  439.19906    0  285  488.00000  439.19906  10.0%     -    2s
     0     0  439.24714    0  285  488.00000  439.24714  10.0%     -    2s
     0     0  439.25118    0  286  488.00000  439.25118  10.0%     -    2s
     0     0  439.68117    0  281  488.00000  439.68117  9.90%     -    2s
     0     0  439.71991    0  281  488.00000  439.71991  9.89%     -    2s
     0     0  439.72694    0  284  488.00000  439.72694  9.89%     -    2s
     0     0  439.73266    0  284  488.00000  439.73266  9.89%     -    2s
     0     0  439.73266    0  282  488.00000  439.73266  9.89%     -    2s
     0     2  439.83712    0  282  488.00000  439.83712  9.87%     -    3s
H  164    43                     487.0000000  469.46070  3.60%  82.8    4s
   220    58  473.14114    9  233  487.00000  470.05137  3.48%  76.2    5s

Cutting planes:
  MIR: 34
  StrongCG: 1
  Inf proof: 1
  Zero half: 34
  RLT: 173

Explored 793 nodes (41366 simplex iterations) in 7.46 seconds
Thread count was 1 (of 40 available processors)

Solution count 3: 487 488 568 

Optimal solution found (tolerance 1.00e-04)
Best objective 4.870000000000e+02, best bound 4.870000000000e+02, gap 0.0000%

User-callback calls 3789, time in user-callback 0.00 sec
